41823 42984 43131 43273 44280 45170 45855 45767 45806 45969 45612 45564 45564 45564 45665 45980 45980 45980 45980 45980 45980 45980 45980 45980 45980 45980 45980 45980 45980 45980 45980 45980 45980 45980 45980 45980 45980 45980 45980 45980 45980 45980 45980 45980 45980 45980 45980 45980 45980 45980 45980 45980 45980 45980 45980 45980 45980 45980 45980 45980 45980 45980 45980 45980 45980 45980 45980 45980 45980 45980 45980 45980 45980 45980 45980 45980 45980 45980 45980 45980 45980 45980 45980 45980 45980 45980 45980 45980 45980 45980 45980 45980 45980 45980 45980 45980 45980 45980 45980 45980 45980 45980 45980 45980 45980 45980 45980 45980 45980 45980 45980 45980 45980 45980 45980 45980 45980 45980 45980 45980 45980 45980 45980 45980 45980 45980 45980 45980 45980 45980 45980 45980 45980 45980 45980 45980 45980 45980 45980 45980 45980 45980 45980 45980 45980 45980 45980 45980 45980 45980 45980 45980 45980 45980 45980 45980 45980 45980 45980 45980 45980 45980 45980 45980 45980 45980 45980 45980 45980 45980 45980 45980 45980 45980 45980 45980 45980 45980 45980 45980 45980 45980 45980 45980 45980 45980 45980 45980 45980 45980 45980 45980 45980 45980 45980 45980 45980 45980 45980 45980 45980 45980 45980 45980 45980 45980 45980 45980 45980 45980 45980 45980 45980 45980 45980 45980 45980 45980 45980 45980 45980 45980 45980 45980 45980 45980 45980 45980 45980 45980 45980 45980 45980 45980 45980 45980 45980 45980 45980 45980 45980 45980 45980 45980 45980 45980 45980 45980 45980 45980 45980 45980 45980 45980 45980 45980 45980 45980 45980 45980 45980 45980 45980 45980 45980 45980 45980 45980 45980 45980 45980 45980 45980 45980 45980 45980 45980 45980 45980 45980 45980 45980 45980 45980 45980 45980 45980 45980 45980 45980 45980 45980 45980 45980 45980 45980 45980 45980 45980 45980 45980 45980 45980 45980 45980 45980 45980 45980 45980 45980 45980 45980 45980 45980 45980 45980 45980 45980 45980 45980 45980 45980 45980 45980 45980 45980 45980 45980 45980 45980 45980 45980 45980 45980 45980 45980 45980 45980 45980 45980 45980 45980 45980 45980 45980 45980 45980 45980 45980 45980 45980 45980 45980 45980 45980 45980 45980 45980 45980 45980 45980 45980 45980 45980 45980 45980 45980 45980 45980 45980 45980 45980 45980 45980 45980 45980 45980 45980 45980 45980 45980 45980 45980 45980 45980 45980 45980 45980 45980 45980 45980 45980 45980 45980 45980 45980 45980 45980 45980 45980 45980 45980 45980 45980 45980 45980 45980 45980 45980 45980 45980 45980 45980 45980 45980 45980 45980 45980 45980 45980 45980 45980 45980 45980 45980 45980 45980 45980 45980 45980 45980 45980 45980 45980 45980 45980 45980 45980 45980 45980 45980 45980 45980 45980 45980 45980 45980 45980 45980 45980 45980 45980 45980 45980 45980 45980 45980 45980 45980 45980 45980 45980 45980 45980 45980 45980 45980 45980 45980 45980 45980 45980 45980 45980 45980 45980 45980 45980 45980 45980 45980 45980 45980 45980 45980 45980 45980 45980 45980 45980 45980 45980 45980 45980 45980 45980 45980 45980 45980 45980 45980 45980 45980 45980 45980 45980 45980 45980 45980 45980 45980 45980 45980 45980 45980 45980 45980 45980 45980 45980 45980 45980 45980 45980 45980 45980 45980 45980 45980 45980 45980 45980 45980 45980 45980 45980 45980 45980 45980 45980 45980 45980 45980 45980 45980 45980 45980 45980 45980 45980 45980 45980 45960 45980 45980 45980 45980 45980 45980 45980 45980 45980 45980 45980 45980 45980 45980 45980 45980 45980 45980 45980 45980 45980 45980 45980 45980 45980 45980 45980 45980 45980 45980 45980 45980 45980 45980 45980 45980 45980 45980 45980 45980 45980 45980 45980 45980 45980 45980 45980 45980 45980 45980 45980 45980 45980 45980 45980 45980 45980 45980 45980 45980 45980 45980 45980 45980 45980 45980 45980 45980 45980 45980 45980 45980 45980 45980 45980 45980 45980 45980 45980 45980 45980 45980 45980 45980 45980 45980 45980 45980 45980 45980 45980 45980 45980 45980 45980 45980 45980 45980 45980 45980 45980 45980 45980 45980 45980 45980 45980 45980 45980 45980 45980 45980 45980 45980 45980 45980 45980 45980 45980 45980 45980 45980 45980 45980 45980 45980 45980 45980 45980 45980 45980 45980 45980 45980 45980 45980 45980 45980 45980 45980 45980 45980 45980 45980 45980 45980 45980 45980 45980 45980 45980 45980 45980 45980 45980 45980 45980 45980 45980 45980 45980 45980 45980 45980 45980 45980 45980 45980 45980 45980 45980 45980 45980 45980 45980 45980 45980 45980 45980 45980 45980 45980 45980 45980 45980 45980 45980 45980 45980 45980 45980 45980 45980 45980 45980 45980 45980 45980 45980 45980 45980 45980 45980 45980 45980 45980 45980 45980 45980 45980 45980 45980 45980 45980 45980 45980 45980 45980 45980 45980 45980 45980 45980 45980 45980 45980 45980 45980 45980 45980 45980 45980 45980 45980 45980 45980 45980 45980 45980 45980 45980 45980 45980 45980 45980 45980 45980 45980 45980 45980 45980 45980 45980 45980 45980 45980 45980 45980 45980 45980 45980 45980 45980 45980 45980 45980 45980 45980 45980 45980 45980 45980 45980 45980 45980 45980 45980 45980 45980 45980 45980 45980 45980 45980 45980 45980 45980 45980 45980 45980 45980 45980 45980 45980 45980 45980 45980 45980 45980 45980 45980 45980 45980 45980 45980 45980 45980 45980 45980 45980 45980 45980 45980 45980 45980 45980 45980 45980 45980 45980 45980 45980 45980 45980 45980 45980 45980 45980 45980 45980 45980 45980 45980 45980 45980 45980 45980 45980 45980 45980 45980 45980 45980 45980 45980 45980 45980 45980 45980 45980 45980 45980 45980 45980 45980 45980 45980 45980 45980 45980 45980 45980 45980 45980 45980 45980 45980 45980 45980 45980 45980 45980 45980 45980 45980 45980 45980 45980 45980 45980 45980 45980 45980 45980 45980 45980 45980 45980 45980 45980 45980 45980 45980 45980 45980 45980 45980 45980 45980 45980 45980 45980 45980 45980 45980 45980 45980 45980 45980 45980 45980 45980 45980 45980 45980 45980 45980 45980 45980 45980 45980 45980 45980 45980 45980 45980 45980 45980 45980 45980 45980 45980 45980 45980 45980 45980 45980 45980 45980 45980 45980 45980 45980 45980 45980 45980 45980 